units si
dimension 3
boundary p p p
atom_style sphere
comm_modify vel yes cutoff 12.0
atom_modify map yes
newton off

region             box block -10 10 -10 10 -10 10 units box
create_box         1 box

fix             0 all property/atom mol ghost yes

read_data data_sphere add 0 1 shift 2.5 0.0 0.0
read_data data_sphere add 1000 2 shift 0.0 0.0 0.0

group           grain1 molecule 1
group           grain2 molecule 2

# rotate grain1 by 25 degrees
#displace_atoms grain1 rotate -3 0 0 0 0 1 45.0
#displace_atoms grain2 rotate +3 0 0 0 0 1 45.0
#displace_atoms grain2 rotate -3 0 0 0 0 1 45.0
#displace_atoms grain2 move 0.0 -2.0 0.0
# shift grain1 by 1 unit
# displace_atoms grain1 move 0.0 -1.0 0.0

# Initial velocity given in infile_sphere

neigh_modify   exclude molecule/intra all

fix             1 all rigid/ls/dem molecule infile infile_sphere

pair_style ls/dem 1.0
pair_coeff * * 1.0e7 1.0 0.1

thermo_style custom step
timestep 1.0e-6

thermo 1000
run 500

thermo 100
dump mydump all custom 100 atomDump_sphere id type mol x y z vx vy vz fx fy fz

run 50000

