units si
dimension 3
boundary p p p
atom_style sphere
# below cutoff was 12.0
comm_modify vel yes cutoff 1.0
atom_modify map yes
newton off

region             box block -50 50 -50 50 -50 50 units box
create_box         1 box

fix             0 all property/atom mol ghost yes

read_data data_sphere add 0 1 shift 2.25 0.0 0.0
read_data data_sphere add 800 2 shift 0.0 0.0 0.0

group           grain1 molecule 1
group           grain2 molecule 2

# Gravity on top grain
fix grav grain1 gravity 9.81 vector -1 0 0

# Immobilise bottom grain
fix immob grain2 freeze

# Initial velocities are given in infile_sphere

neigh_modify   exclude molecule/intra all

fix             1 all rigid/ls/dem molecule infile infile_sphere


pair_style ls/dem 1.0
# pair_coeff * * kn kt mu etan etat knp cut kn1 etan1 kt1 etat1
pair_coeff * * 1.0e7 0 0 0 0 0 1.0 0 0 0 0

thermo_style custom step
timestep 1e-5

thermo 1000
run 500

thermo 10000
dump mydump grain1 custom 1000 atomDump_sphere id type mol x y z vx vy vz fx fy fz

run 1000000

